Maximize

1.0 x_0_1 + 2.0 x_0_2 + 4.0 x_0_3 + 5.0 x_0_4 + 1.0 x_1_1 + 2.0 x_1_2 + 5.0 x_1_3 + 0.0 x_1_4 + 0.0 x_2_1 + 5.0 x_2_2 + 2.0 x_2_3 + 3.0 x_2_4 + 5.0 x_3_1 + 0.0 x_3_2 + 2.0 x_3_3 + 3.0 x_3_4 + 2.0 x_4_1 + 3.0 x_4_2 + 0.0 x_4_3 + 5.0 x_4_4 + 3.0 x_5_1 + 0.0 x_5_2 + 5.0 x_5_3 + 1.0 x_5_4 + 1.0 x_6_1 + 5.0 x_6_2 + 0.0 x_6_3 + 2.0 x_6_4 + 5.0 x_7_1 + 3.0 x_7_2 + 2.0 x_7_3 + 0.0 x_7_4


Subject To

a0: x_0_1 + x_0_2 + x_0_3 + x_0_4 = 1
a1: x_1_1 + x_1_2 + x_1_3 + x_1_4 = 1
a2: x_2_1 + x_2_2 + x_2_3 + x_2_4 = 1
a3: x_3_1 + x_3_2 + x_3_3 + x_3_4 = 1
a4: x_4_1 + x_4_2 + x_4_3 + x_4_4 = 1
a5: x_5_1 + x_5_2 + x_5_3 + x_5_4 = 1
a6: x_6_1 + x_6_2 + x_6_3 + x_6_4 = 1
a7: x_7_1 + x_7_2 + x_7_3 + x_7_4 = 1
b0: x_0_1 + x_1_1 + x_3_1 + x_4_1 + x_5_1 + x_6_1 + x_7_1 = 2
b1: x_0_2 + x_1_2 + x_2_2 + x_4_2 + x_6_2 + x_7_2 = 2
b2: x_0_3 + x_1_3 + x_2_3 + x_3_3 + x_5_3 + x_7_3 = 2
b3: x_0_4 + x_2_4 + x_3_4 + x_4_4 + x_5_4 + x_6_4 = 2




Binary

x_0_1 x_0_2 x_0_3 x_0_4 x_1_1 x_1_2 x_1_3 x_1_4 x_2_1 x_2_2 x_2_3 x_2_4 x_3_1 x_3_2 x_3_3 x_3_4 x_4_1 x_4_2 x_4_3 x_4_4 x_5_1 x_5_2 x_5_3 x_5_4 x_6_1 x_6_2 x_6_3 x_6_4 x_7_1 x_7_2 x_7_3 x_7_4

 
End
